
  32    1
  10

   0   0  12 2 3 4 5 6 7 8 9 10 11 12 16 
   6   8   8 30 29 28 21 20 19 18 15 
   1   6   7 27 26 22 21 17 14 13 
   1  10   7 29 28 27 26 21 20 13 
  10  10   7 28 27 26 25 20 18 17 
   8   8   8 31 30 28 27 26 25 24 23 
   3  10   4 30 29 26 13 
   1  10   5 31 26 25 20 18 
   5   9   5 27 26 25 23 19 
   2   5   5 27 26 24 22 21 
   4   5   4 28 25 21 19 
   7   6   4 26 25 24 20 
   4  10   3 25 24 18 
   4  10   3 25 24 23 
   4  10   2 26 25 
   2   6   2 27 26 
   1   8   1 19 
   6   9   1 23 
   2  10   1 24 
   1  10   1 23 
   3   7   1 23 
   8   7   1 23 
   9   8   1 32
  10   6   1 32
   3   8   1 32
   6   8   1 32
   2  10   1 32
   3   6   1 32
   5   5   1 32
  10  10   1 32
   2   5   1 32
   0   0   0 
